20:47:50 | INFO    | Run started | run_id: MR_MV_WT_case1_P5_R3_eps9999 | log file: C:\Users\Asus\Documents\GitHub\logistics-model2\internal-logistics-model2\results\MR_MV_WT\case1\MR_MV_WT_case1_P5_R3_eps9999_2026_05_04_20_47.log
20:47:50 | INFO    | Products loaded | sheet=case1 | rows=10
20:47:51 | INFO    | Data loaded | |N|=26 |Nw|=25 |K|=3 |R|=3 |P|=5 | U=25
20:47:51 | INFO    | Big-M | time=491.0 precedence=480.0 wait=465.0 load_lb=20 load_ub=20
20:47:51 | INFO    | Set parameter Username
20:47:51 | INFO    | Set parameter LicenseID to value 2811848
20:47:51 | INFO    | Academic license - for non-commercial use only - expires 2027-04-22
20:47:51 | INFO    | Objective set | primary: min total_wait | tie-break weight on route_duration: 0.001
20:47:51 | INFO    | Constraint (3) added | route_duration <= 9999
20:47:51 | INFO    | Constraints (4)-(9) added | route structure
20:47:51 | INFO    | Constraints (10)-(12) added | product assignment
20:47:51 | INFO    | Constraints (13)-(15) added | route timing
20:47:51 | INFO    | Constraints (16) added | time consistency
20:47:51 | INFO    | Constraints (17)-(19) added | service times
20:47:51 | INFO    | Constraints (20)-(22) added | precedence, route closure, waiting
20:47:51 | INFO    | Constraints (23)-(27) added | load propagation
20:47:51 | INFO    | Constraints (28)-(32) added | MTZ and route ordering
20:47:51 | INFO    | Set parameter TimeLimit to value 600
20:47:51 | INFO    | Set parameter MIPGap to value 0.01
20:47:51 | INFO    | Set parameter Presolve to value 2
20:47:51 | INFO    | Set parameter LogFile to value "C:\Users\Asus\Documents\GitHub\logistics-model2\internal-logistics-model2\results\MR_MV_WT\case1\result_MR_MV_WT_case1_P5_R3_eps9999_2026_05_04_20_47.log"
20:47:51 | INFO    | Solver configured | TimeLimit=600s | MIPGap=0.01 | gurobi_log=C:\Users\Asus\Documents\GitHub\logistics-model2\internal-logistics-model2\results\MR_MV_WT\case1\result_MR_MV_WT_case1_P5_R3_eps9999_2026_05_04_20_47.log
20:47:51 | INFO    | Optimization starting...
20:47:51 | INFO    | Gurobi Optimizer version 12.0.0 build v12.0.0rc1 (win64 - Windows 10.0 (19045.2))
20:47:51 | INFO    | 
20:47:51 | INFO    | CPU model: 12th Gen Intel(R) Core(TM) i7-12650H, instruction set [SSE2|AVX|AVX2]
20:47:51 | INFO    | Thread count: 10 physical cores, 16 logical processors, using up to 16 threads
20:47:51 | INFO    | 
20:47:51 | INFO    | Non-default parameters:
20:47:51 | INFO    | TimeLimit  600
20:47:51 | INFO    | MIPGap  0.01
20:47:51 | INFO    | Presolve  2
20:47:51 | INFO    | 
20:47:51 | INFO    | Optimize a model with 24417 rows, 7277 columns and 122577 nonzeros
20:47:51 | INFO    | Model fingerprint: 0x2dffa2c9
20:47:51 | INFO    | Variable types: 1157 continuous, 6120 integer (5895 binary)
20:47:51 | INFO    | Coefficient statistics:
20:47:51 | INFO    |   Matrix range     [1e+00, 5e+02]
20:47:51 | INFO    |   Objective range  [1e-03, 1e+00]
20:47:51 | INFO    |   Bounds range     [1e+00, 3e+01]
20:47:51 | INFO    |   RHS range        [1e+00, 1e+04]
20:47:52 | INFO    | Presolve removed 20037 rows and 5808 columns
20:47:52 | INFO    | Presolve time: 0.42s
20:47:52 | INFO    | Presolved: 4380 rows, 1469 columns, 28260 nonzeros
20:47:52 | INFO    | Variable types: 389 continuous, 1080 integer (990 binary)
20:47:52 | INFO    | Root relaxation presolve removed 15 rows and 0 columns
20:47:52 | INFO    | Root relaxation presolved: 4365 rows, 1475 columns, 28077 nonzeros
20:47:52 | INFO    | 
20:47:52 | INFO    | 
20:47:52 | INFO    | Root relaxation: objective 0.000000e+00, 346 iterations, 0.06 seconds (0.04 work units)
20:47:52 | INFO    | 
20:47:52 | INFO    |     Nodes    |    Current Node    |     Objective Bounds      |     Work
20:47:52 | INFO    |  Expl Unexpl |  Obj  Depth IntInf | Incumbent    BestBd   Gap | It/Node Time
20:47:52 | INFO    | 
20:47:52 | INFO    |      0     0    0.00000    0   67          -    0.00000      -     -    0s
20:47:52 | INFO    | H    0     0                      83.1420000    0.00000   100%     -    0s
20:47:52 | INFO    |      0     0    0.00000    0   75   83.14200    0.00000   100%     -    0s
20:47:52 | INFO    |      0     0    0.00000    0   81   83.14200    0.00000   100%     -    0s
20:47:52 | INFO    |      0     0    3.00000    0   77   83.14200    3.00000  96.4%     -    1s
20:47:52 | INFO    | H    0     0                      76.1340000    3.00000  96.1%     -    1s
20:47:52 | INFO    | H    0     0                      74.1800000    3.00000  96.0%     -    1s
20:47:52 | INFO    |      0     0    3.00000    0   74   74.18000    3.00000  96.0%     -    1s
20:47:52 | INFO    |      0     0    3.00000    0   77   74.18000    3.00000  96.0%     -    1s
20:47:53 | INFO    | H    0     0                      57.1840000    3.00000  94.8%     -    1s
20:47:53 | INFO    | H    0     0                      56.1840000    3.00000  94.7%     -    1s
20:47:53 | INFO    | H    0     0                      56.1830000    3.00000  94.7%     -    1s
20:47:53 | INFO    | H    0     0                      55.1820000    3.00000  94.6%     -    1s
20:47:53 | INFO    |      0     0    3.00000    0   97   55.18200    3.00000  94.6%     -    1s
20:47:53 | INFO    | H    0     0                      53.1640000    3.00000  94.4%     -    1s
20:47:53 | INFO    |      0     0    3.00000    0   92   53.16400    3.00000  94.4%     -    1s
20:47:53 | INFO    |      0     2    3.00000    0   92   53.16400    3.00000  94.4%     -    1s
20:47:53 | INFO    | H  105   108                      44.1710000    6.08290  86.2%  99.2    1s
20:47:53 | INFO    | H  247   202                      44.1240000    9.07844  79.4%  70.0    2s
20:47:56 | INFO    |   3470  1003   15.00000   20   94   44.12400   15.00000  66.0%  35.1    5s
20:48:01 | INFO    |   9940   988     cutoff   53        44.12400   20.00011  54.7%  35.7   10s
20:48:05 | INFO    | 
20:48:05 | INFO    | Cutting planes:
20:48:05 | INFO    |   Learned: 72
20:48:05 | INFO    |   Gomory: 1
20:48:05 | INFO    |   Cover: 1
20:48:05 | INFO    |   Implied bound: 180
20:48:05 | INFO    |   Clique: 2
20:48:05 | INFO    |   MIR: 60
20:48:05 | INFO    |   Zero half: 4
20:48:05 | INFO    |   RLT: 25
20:48:05 | INFO    |   Relax-and-lift: 13
20:48:05 | INFO    |   PSD: 1
20:48:05 | INFO    | 
20:48:05 | INFO    | Explored 18498 nodes (596579 simplex iterations) in 14.02 seconds (18.58 work units)
20:48:05 | INFO    | Thread count was 16 (of 16 available processors)
20:48:05 | INFO    | 
20:48:05 | INFO    | Solution count 10: 44.124 44.171 53.164 ... 83.142
20:48:05 | INFO    | 
20:48:05 | INFO    | Optimal solution found (tolerance 1.00e-02)
20:48:05 | INFO    | Best objective 4.412400000000e+01, best bound 4.412400000000e+01, gap 0.0000%
20:48:05 | INFO    | Solution found | total_wait=44.00 | route_duration=124.00
20:48:05 | INFO    | Objective=44.12 | runtime=14.02s | MIP Gap=0.00%
20:48:05 | INFO    | Generating Excel output | C:\Users\Asus\Documents\GitHub\logistics-model2\internal-logistics-model2\results\MR_MV_WT\case1\result_MR_MV_WT_case1_P5_R3_eps9999_2026_05_04_20_47.xlsx
20:48:05 | INFO    | Excel output written | 12 sheets | C:\Users\Asus\Documents\GitHub\logistics-model2\internal-logistics-model2\results\MR_MV_WT\case1\result_MR_MV_WT_case1_P5_R3_eps9999_2026_05_04_20_47.xlsx
20:48:06 | INFO    | Master Pareto updated | 7 total rows | C:\Users\Asus\Documents\GitHub\logistics-model2\internal-logistics-model2\results\master_pareto.xlsx
20:48:06 | INFO    | Run complete | run_id=MR_MV_WT_case1_P5_R3_eps9999
